1029012
39 25 4093
25 31 7859
31 30 10287
30 37 941
37 26 14546
26 33 15458
33 12 3967
12 32 37145
32 5 3290
5 20 27357
20 28 26675
28 13 6411
13 38 18675
38 29 745
29 23 8154
23 36 25045
36 7 11794
7 21 17005
21 10 5744
10 11 5506
11 35 5412
35 2 10541
2 27 15288
27 18 12606
18 40 18404
40 19 13572
19 4 26533
4 22 23621
22 24 45980
24 1 114648
1 8 23751
8 15 26227
15 16 36816
16 17 43849
17 14 42391
14 3 30026
3 9 153162
9 6 47658
6 34 56284
34 39 31546
